benchmarks_CP/INST_64x64/40/inst64x64_40_40.dzn
S=8;
start=[|
-1,	-1,	51,	-1,	61,	10,	-1,	-1,	-1,	12,	-1,	-1,	3,	-1,	-1,	-1,	9,	-1,	-1,	-1,	-1,	-1,	26,	-1,	46,	-1,	50,	24,	52,	-1,	-1,	-1,	-1,	29,	-1,	19,	-1,	42,	20,	28,	-1,	-1,	-1,	41,	-1,	-1,	-1,	31,	-1,	-1,	-1,	7,	48,	-1,	-1,	-1,	-1,	-1,	33,	56,	63,	-1,	-1,	-1|
28,	-1,	52,	2,	-1,	-1,	12,	-1,	-1,	-1,	17,	-1,	-1,	-1,	61,	-1,	19,	29,	-1,	64,	-1,	27,	47,	-1,	-1,	39,	-1,	-1,	-1,	48,	-1,	-1,	-1,	63,	36,	-1,	-1,	-1,	-1,	7,	16,	-1,	-1,	-1,	40,	-1,	38,	-1,	-1,	-1,	46,	-1,	9,	5,	-1,	-1,	34,	-1,	-1,	50,	11,	-1,	59,	-1|
36,	63,	-1,	60,	-1,	-1,	37,	26,	-1,	47,	-1,	-1,	-1,	34,	42,	-1,	-1,	-1,	-1,	-1,	5,	-1,	-1,	-1,	20,	7,	-1,	44,	57,	-1,	-1,	1,	-1,	-1,	-1,	-1,	-1,	-1,	21,	-1,	-1,	-1,	-1,	17,	-1,	25,	-1,	49,	-1,	-1,	8,	-1,	-1,	10,	6,	-1,	-1,	-1,	-1,	-1,	35,	14,	-1,	24|
-1,	9,	41,	57,	47,	-1,	-1,	13,	-1,	-1,	-1,	-1,	-1,	-1,	-1,	-1,	48,	-1,	4,	-1,	59,	34,	-1,	-1,	19,	37,	-1,	-1,	2,	-1,	56,	17,	23,	39,	-1,	-1,	-1,	-1,	-1,	-1,	10,	-1,	-1,	-1,	21,	22,	-1,	24,	-1,	60,	-1,	-1,	-1,	-1,	-1,	-1,	-1,	-1,	-1,	-1,	3,	-1,	-1,	-1|
-1,	-1,	-1,	-1,	-1,	-1,	49,	31,	-1,	22,	-1,	-1,	55,	-1,	10,	11,	33,	-1,	57,	-1,	28,	-1,	-1,	-1,	-1,	-1,	-1,	47,	-1,	-1,	62,	6,	-1,	34,	51,	-1,	-1,	-1,	-1,	-1,	-1,	-1,	60,	-1,	-1,	-1,	-1,	42,	-1,	32,	-1,	-1,	43,	-1,	29,	-1,	-1,	-1,	36,	-1,	-1,	-1,	7,	-1|
27,	-1,	-1,	-1,	-1,	53,	-1,	-1,	-1,	24,	-1,	23,	-1,	59,	-1,	-1,	-1,	31,	-1,	-1,	15,	63,	17,	38,	-1,	-1,	-1,	-1,	-1,	32,	40,	42,	-1,	-1,	5,	-1,	-1,	8,	-1,	-1,	-1,	7,	48,	-1,	-1,	20,	-1,	52,	-1,	16,	28,	13,	-1,	-1,	-1,	-1,	-1,	51,	-1,	60,	-1,	39,	-1,	-1|
-1,	64,	50,	44,	54,	14,	48,	19,	-1,	21,	-1,	49,	26,	2,	16,	7,	51,	52,	58,	-1,	-1,	24,	18,	-1,	-1,	36,	-1,	-1,	-1,	22,	-1,	-1,	32,	57,	-1,	-1,	-1,	-1,	35,	46,	-1,	-1,	28,	-1,	39,	-1,	-1,	34,	40,	-1,	1,	-1,	31,	23,	-1,	-1,	41,	42,	-1,	-1,	-1,	47,	-1,	-1|
-1,	55,	17,	42,	-1,	20,	22,	58,	19,	-1,	-1,	31,	18,	-1,	52,	48,	14,	-1,	7,	3,	-1,	23,	-1,	-1,	-1,	-1,	-1,	60,	49,	45,	-1,	-1,	-1,	-1,	25,	11,	-1,	-1,	50,	-1,	-1,	-1,	-1,	-1,	-1,	8,	-1,	-1,	-1,	12,	-1,	-1,	-1,	54,	-1,	24,	-1,	-1,	-1,	-1,	16,	-1,	-1,	40|
-1,	38,	-1,	33,	28,	-1,	5,	-1,	-1,	-1,	29,	-1,	41,	-1,	-1,	-1,	-1,	14,	64,	-1,	47,	35,	-1,	39,	-1,	-1,	-1,	-1,	51,	-1,	4,	-1,	42,	56,	-1,	-1,	-1,	21,	-1,	43,	-1,	-1,	15,	-1,	-1,	9,	30,	25,	55,	20,	22,	-1,	-1,	-1,	46,	-1,	-1,	58,	16,	49,	59,	-1,	-1,	17|
-1,	48,	13,	19,	64,	-1,	1,	-1,	-1,	-1,	-1,	-1,	-1,	-1,	-1,	-1,	44,	-1,	34,	-1,	58,	-1,	-1,	-1,	27,	28,	-1,	59,	-1,	62,	-1,	-1,	10,	-1,	-1,	-1,	61,	35,	-1,	-1,	57,	-1,	52,	-1,	53,	-1,	7,	14,	-1,	63,	38,	-1,	6,	26,	24,	-1,	-1,	-1,	-1,	-1,	18,	-1,	39,	51|
-1,	-1,	9,	41,	34,	-1,	59,	11,	-1,	-1,	-1,	46,	-1,	27,	-1,	54,	16,	57,	-1,	-1,	22,	-1,	-1,	-1,	-1,	19,	-1,	-1,	-1,	52,	8,	38,	-1,	53,	60,	-1,	-1,	-1,	-1,	32,	-1,	24,	-1,	-1,	2,	64,	-1,	10,	-1,	50,	14,	-1,	-1,	-1,	-1,	42,	-1,	-1,	-1,	30,	47,	-1,	-1,	-1|
61,	-1,	-1,	55,	-1,	-1,	-1,	16,	-1,	-1,	32,	35,	-1,	40,	-1,	-1,	-1,	-1,	-1,	45,	-1,	5,	-1,	-1,	1,	54,	-1,	-1,	-1,	50,	17,	-1,	11,	-1,	-1,	-1,	-1,	-1,	-1,	63,	-1,	48,	22,	3,	44,	37,	-1,	-1,	-1,	28,	-1,	-1,	-1,	9,	33,	43,	-1,	38,	-1,	-1,	-1,	-1,	-1,	-1|
-1,	-1,	-1,	4,	44,	31,	35,	-1,	61,	62,	14,	63,	-1,	19,	-1,	-1,	-1,	-1,	-1,	-1,	-1,	17,	59,	60,	48,	34,	-1,	33,	53,	-1,	-1,	-1,	-1,	6,	20,	-1,	50,	-1,	-1,	64,	-1,	-1,	36,	-1,	8,	23,	5,	-1,	-1,	-1,	-1,	-1,	-1,	-1,	3,	41,	-1,	-1,	24,	15,	1,	-1,	52,	-1|
-1,	-1,	-1,	10,	-1,	23,	-1,	-1,	-1,	38,	26,	-1,	9,	3,	-1,	-1,	-1,	-1,	50,	-1,	6,	-1,	-1,	-1,	-1,	15,	-1,	46,	56,	-1,	30,	-1,	-1,	-1,	-1,	1,	-1,	-1,	-1,	12,	-1,	-1,	34,	11,	-1,	-1,	-1,	-1,	-1,	-1,	13,	36,	-1,	-1,	54,	-1,	40,	-1,	2,	27,	-1,	-1,	-1,	5|
-1,	-1,	-1,	-1,	-1,	30,	2,	-1,	-1,	60,	-1,	21,	12,	58,	-1,	-1,	10,	-1,	1,	7,	-1,	-1,	-1,	23,	-1,	57,	-1,	3,	25,	-1,	-1,	-1,	49,	-1,	26,	-1,	40,	51,	29,	33,	-1,	-1,	38,	28,	-1,	-1,	43,	-1,	-1,	11,	-1,	-1,	-1,	52,	-1,	-1,	-1,	45,	-1,	-1,	50,	-1,	46,	14|
-1,	3,	15,	-1,	-1,	6,	-1,	29,	22,	33,	-1,	-1,	16,	-1,	11,	44,	-1,	41,	-1,	63,	31,	43,	-1,	53,	9,	-1,	14,	-1,	55,	-1,	24,	-1,	-1,	-1,	-1,	-1,	-1,	-1,	-1,	59,	-1,	51,	-1,	-1,	-1,	-1,	-1,	4,	-1,	-1,	-1,	21,	-1,	-1,	-1,	-1,	-1,	37,	25,	19,	-1,	-1,	12,	56|
53,	10,	55,	-1,	-1,	-1,	-1,	7,	-1,	-1,	64,	45,	-1,	-1,	62,	-1,	35,	23,	-1,	51,	-1,	-1,	-1,	-1,	-1,	27,	15,	36,	-1,	43,	-1,	-1,	-1,	-1,	-1,	-1,	-1,	49,	9,	-1,	26,	37,	47,	48,	-1,	-1,	-1,	-1,	21,	13,	-1,	54,	-1,	41,	-1,	-1,	-1,	1,	-1,	57,	5,	50,	-1,	16|
45,	-1,	-1,	-1,	-1,	-1,	-1,	-1,	-1,	-1,	-1,	-1,	-1,	-1,	-1,	50,	46,	-1,	-1,	-1,	-1,	-1,	-1,	47,	-1,	30,	-1,	17,	-1,	-1,	-1,	-1,	37,	-1,	-1,	-1,	-1,	33,	14,	5,	52,	-1,	-1,	-1,	1,	41,	9,	-1,	-1,	29,	23,	-1,	-1,	57,	-1,	-1,	-1,	55,	-1,	-1,	-1,	60,	64,	-1|
14,	50,	-1,	-1,	2,	-1,	-1,	30,	24,	-1,	-1,	-1,	-1,	-1,	9,	4,	64,	21,	62,	-1,	-1,	-1,	37,	-1,	-1,	-1,	-1,	-1,	47,	-1,	-1,	57,	43,	-1,	56,	-1,	55,	-1,	53,	-1,	35,	-1,	-1,	-1,	-1,	31,	18,	20,	-1,	-1,	16,	32,	60,	-1,	17,	-1,	-1,	-1,	-1,	33,	40,	41,	61,	54|
-1,	-1,	5,	-1,	-1,	32,	61,	-1,	-1,	7,	-1,	-1,	-1,	-1,	8,	46,	43,	-1,	60,	-1,	-1,	48,	-1,	31,	54,	35,	13,	4,	-1,	12,	-1,	50,	21,	-1,	63,	-1,	-1,	-1,	1,	20,	-1,	62,	-1,	-1,	-1,	-1,	57,	-1,	-1,	-1,	55,	-1,	-1,	-1,	22,	-1,	-1,	-1,	-1,	-1,	-1,	29,	-1,	23|
34,	-1,	-1,	26,	13,	-1,	-1,	-1,	-1,	-1,	21,	-1,	47,	-1,	49,	-1,	7,	9,	-1,	-1,	3,	45,	20,	24,	29,	-1,	-1,	32,	-1,	59,	11,	-1,	39,	-1,	50,	-1,	52,	64,	-1,	-1,	60,	-1,	27,	19,	55,	-1,	-1,	54,	-1,	56,	-1,	-1,	58,	-1,	61,	37,	18,	-1,	-1,	-1,	48,	-1,	-1,	-1|
-1,	20,	35,	-1,	-1,	64,	41,	9,	40,	37,	-1,	54,	19,	-1,	-1,	-1,	-1,	26,	-1,	-1,	32,	-1,	-1,	-1,	-1,	-1,	-1,	42,	-1,	58,	16,	-1,	-1,	-1,	22,	-1,	30,	17,	-1,	-1,	-1,	-1,	-1,	-1,	25,	-1,	-1,	-1,	-1,	8,	24,	-1,	-1,	12,	52,	-1,	-1,	-1,	-1,	7,	21,	-1,	-1,	-1|
-1,	52,	-1,	43,	37,	8,	-1,	38,	-1,	-1,	-1,	16,	-1,	-1,	-1,	-1,	25,	18,	-1,	-1,	-1,	-1,	5,	-1,	-1,	1,	-1,	-1,	-1,	-1,	-1,	-1,	-1,	-1,	-1,	-1,	-1,	48,	-1,	-1,	-1,	58,	-1,	-1,	12,	-1,	-1,	-1,	46,	-1,	-1,	40,	-1,	27,	-1,	64,	-1,	-1,	-1,	-1,	42,	-1,	-1,	-1|
-1,	17,	23,	47,	60,	40,	-1,	57,	-1,	-1,	-1,	-1,	34,	-1,	-1,	-1,	11,	-1,	33,	-1,	-1,	41,	-1,	56,	-1,	-1,	53,	-1,	-1,	55,	-1,	52,	-1,	-1,	3,	-1,	7,	16,	58,	54,	-1,	-1,	-1,	10,	-1,	-1,	-1,	-1,	-1,	-1,	26,	-1,	-1,	-1,	-1,	44,	-1,	-1,	51,	45,	-1,	-1,	-1,	9|
-1,	23,	33,	-1,	-1,	-1,	16,	-1,	-1,	3,	-1,	14,	-1,	-1,	-1,	-1,	-1,	-1,	-1,	-1,	53,	-1,	-1,	-1,	30,	5,	-1,	-1,	-1,	54,	7,	-1,	-1,	-1,	-1,	9,	-1,	-1,	-1,	-1,	-1,	39,	12,	-1,	-1,	-1,	24,	-1,	-1,	-1,	-1,	46,	-1,	-1,	-1,	-1,	57,	25,	55,	-1,	-1,	36,	-1,	-1|
38,	26,	-1,	13,	17,	-1,	27,	40,	59,	25,	-1,	-1,	-1,	8,	-1,	-1,	-1,	47,	-1,	48,	-1,	-1,	-1,	-1,	-1,	21,	-1,	18,	-1,	37,	-1,	64,	6,	-1,	-1,	-1,	-1,	-1,	11,	-1,	-1,	-1,	-1,	15,	56,	-1,	28,	57,	-1,	9,	-1,	5,	-1,	-1,	-1,	-1,	51,	-1,	12,	-1,	-1,	-1,	14,	20|
59,	-1,	-1,	-1,	-1,	-1,	-1,	-1,	-1,	-1,	49,	47,	-1,	-1,	53,	-1,	-1,	-1,	3,	36,	-1,	-1,	58,	25,	-1,	38,	51,	-1,	-1,	26,	29,	-1,	55,	-1,	15,	-1,	44,	-1,	-1,	22,	-1,	42,	-1,	-1,	-1,	-1,	-1,	46,	-1,	18,	-1,	62,	24,	-1,	2,	-1,	-1,	-1,	-1,	-1,	-1,	1,	-1,	-1|
-1,	-1,	-1,	-1,	-1,	9,	11,	-1,	36,	-1,	58,	24,	20,	63,	-1,	-1,	-1,	4,	-1,	-1,	-1,	-1,	-1,	-1,	42,	-1,	59,	-1,	-1,	-1,	-1,	-1,	-1,	-1,	49,	40,	-1,	-1,	-1,	-1,	6,	32,	50,	-1,	54,	-1,	29,	-1,	-1,	-1,	41,	-1,	-1,	16,	12,	-1,	-1,	-1,	-1,	18,	-1,	15,	-1,	-1|
-1,	35,	6,	-1,	-1,	12,	-1,	15,	-1,	-1,	9,	28,	-1,	-1,	51,	21,	22,	-1,	-1,	-1,	-1,	-1,	-1,	32,	-1,	-1,	49,	-1,	4,	-1,	-1,	-1,	-1,	-1,	-1,	-1,	-1,	-1,	-1,	62,	-1,	-1,	-1,	-1,	-1,	-1,	-1,	-1,	38,	-1,	57,	-1,	33,	-1,	-1,	60,	46,	-1,	-1,	-1,	31,	44,	56,	11|
-1,	-1,	-1,	20,	-1,	28,	47,	-1,	-1,	61,	-1,	-1,	-1,	-1,	-1,	-1,	17,	-1,	14,	-1,	-1,	-1,	-1,	-1,	50,	11,	-1,	-1,	63,	56,	-1,	-1,	-1,	58,	2,	51,	41,	-1,	64,	-1,	59,	-1,	23,	40,	48,	49,	35,	62,	31,	-1,	-1,	-1,	30,	25,	-1,	-1,	-1,	54,	-1,	-1,	-1,	-1,	3,	-1|
42,	54,	-1,	-1,	-1,	25,	-1,	-1,	-1,	40,	57,	62,	-1,	-1,	2,	-1,	-1,	11,	31,	-1,	39,	-1,	16,	-1,	3,	-1,	-1,	-1,	-1,	13,	-1,	60,	-1,	-1,	-1,	-1,	4,	-1,	19,	17,	-1,	55,	-1,	-1,	30,	34,	-1,	-1,	32,	37,	48,	-1,	-1,	-1,	27,	-1,	-1,	47,	-1,	-1,	-1,	-1,	63,	7|
24,	22,	-1,	-1,	55,	2,	57,	-1,	-1,	-1,	-1,	34,	64,	50,	-1,	-1,	15,	-1,	27,	-1,	10,	-1,	-1,	1,	-1,	-1,	-1,	6,	14,	-1,	9,	45,	-1,	23,	39,	-1,	3,	7,	-1,	-1,	63,	-1,	-1,	-1,	-1,	44,	-1,	-1,	-1,	53,	-1,	-1,	51,	-1,	-1,	-1,	30,	-1,	5,	32,	-1,	-1,	-1,	-1|
-1,	29,	-1,	6,	-1,	61,	28,	-1,	-1,	44,	10,	55,	31,	12,	26,	-1,	56,	-1,	11,	-1,	-1,	16,	7,	-1,	-1,	-1,	42,	-1,	30,	-1,	-1,	51,	-1,	-1,	14,	-1,	46,	-1,	-1,	-1,	-1,	18,	-1,	-1,	-1,	-1,	33,	2,	37,	-1,	-1,	-1,	-1,	17,	-1,	5,	24,	-1,	-1,	40,	4,	57,	-1,	48|
-1,	-1,	20,	24,	-1,	-1,	-1,	47,	-1,	17,	-1,	52,	-1,	23,	46,	37,	36,	58,	-1,	-1,	48,	-1,	55,	-1,	-1,	59,	10,	1,	-1,	-1,	-1,	39,	-1,	-1,	12,	21,	-1,	-1,	41,	-1,	44,	14,	-1,	51,	32,	-1,	-1,	60,	19,	35,	-1,	-1,	16,	-1,	-1,	4,	-1,	7,	-1,	64,	-1,	-1,	-1,	62|
-1,	-1,	42,	46,	-1,	58,	-1,	35,	-1,	-1,	11,	20,	-1,	1,	4,	36,	-1,	-1,	-1,	10,	17,	8,	44,	-1,	31,	-1,	64,	23,	-1,	7,	12,	37,	-1,	3,	-1,	-1,	51,	-1,	-1,	-1,	-1,	21,	-1,	-1,	-1,	27,	13,	-1,	-1,	15,	-1,	-1,	-1,	-1,	57,	22,	25,	-1,	54,	-1,	-1,	16,	-1,	-1|
51,	5,	-1,	37,	-1,	34,	-1,	54,	-1,	53,	16,	57,	-1,	47,	-1,	-1,	-1,	-1,	26,	60,	-1,	-1,	38,	18,	-1,	-1,	-1,	-1,	32,	-1,	45,	-1,	-1,	7,	24,	58,	-1,	-1,	-1,	-1,	-1,	20,	41,	-1,	-1,	-1,	31,	64,	-1,	44,	-1,	-1,	-1,	40,	-1,	39,	35,	-1,	-1,	17,	-1,	-1,	-1,	43|
21,	40,	-1,	-1,	1,	22,	-1,	-1,	-1,	63,	-1,	-1,	-1,	-1,	24,	-1,	53,	6,	-1,	15,	-1,	-1,	-1,	28,	17,	-1,	-1,	62,	-1,	44,	3,	36,	-1,	-1,	-1,	-1,	60,	-1,	-1,	37,	4,	-1,	-1,	45,	19,	38,	48,	61,	14,	-1,	43,	-1,	23,	-1,	-1,	-1,	-1,	-1,	-1,	58,	2,	59,	-1,	12|
-1,	-1,	-1,	9,	-1,	-1,	-1,	55,	5,	-1,	60,	-1,	29,	-1,	-1,	-1,	-1,	-1,	-1,	-1,	27,	-1,	2,	-1,	25,	-1,	56,	21,	-1,	-1,	15,	-1,	17,	35,	-1,	-1,	39,	-1,	-1,	40,	11,	-1,	-1,	-1,	-1,	-1,	-1,	-1,	-1,	-1,	-1,	-1,	28,	-1,	-1,	51,	61,	-1,	-1,	42,	-1,	53,	-1,	-1|
12,	-1,	-1,	49,	-1,	-1,	-1,	-1,	-1,	-1,	-1,	48,	40,	14,	64,	-1,	-1,	-1,	-1,	46,	63,	-1,	-1,	19,	34,	-1,	-1,	-1,	26,	57,	47,	-1,	-1,	10,	8,	-1,	-1,	18,	-1,	-1,	-1,	-1,	-1,	-1,	-1,	53,	-1,	-1,	58,	-1,	-1,	-1,	42,	-1,	-1,	-1,	-1,	-1,	23,	-1,	37,	51,	-1,	-1|
-1,	-1,	-1,	64,	41,	-1,	25,	-1,	-1,	51,	34,	58,	-1,	-1,	-1,	-1,	-1,	37,	-1,	-1,	-1,	39,	-1,	-1,	52,	40,	-1,	-1,	60,	-1,	22,	-1,	26,	-1,	-1,	-1,	13,	-1,	56,	-1,	28,	-1,	-1,	-1,	-1,	-1,	-1,	12,	-1,	-1,	63,	-1,	1,	3,	-1,	-1,	-1,	46,	49,	6,	-1,	5,	55,	-1|
-1,	57,	-1,	-1,	22,	36,	-1,	-1,	-1,	19,	-1,	9,	53,	-1,	-1,	-1,	-1,	10,	-1,	-1,	-1,	20,	31,	50,	-1,	24,	28,	-1,	-1,	38,	-1,	-1,	-1,	43,	42,	-1,	32,	3,	-1,	-1,	-1,	27,	49,	44,	34,	-1,	-1,	-1,	-1,	41,	-1,	4,	2,	37,	25,	-1,	-1,	48,	-1,	-1,	23,	-1,	5,	33|
-1,	-1,	-1,	35,	20,	47,	-1,	-1,	13,	-1,	-1,	-1,	-1,	-1,	40,	-1,	-1,	63,	28,	49,	-1,	2,	-1,	44,	-1,	-1,	43,	-1,	-1,	61,	31,	-1,	-1,	-1,	-1,	15,	-1,	-1,	-1,	-1,	-1,	-1,	8,	-1,	52,	55,	22,	23,	-1,	24,	-1,	3,	-1,	14,	56,	27,	37,	-1,	1,	-1,	10,	-1,	42,	41|
-1,	49,	-1,	14,	-1,	-1,	-1,	-1,	-1,	-1,	-1,	-1,	-1,	10,	-1,	39,	-1,	48,	55,	41,	-1,	-1,	27,	7,	-1,	-1,	-1,	-1,	13,	1,	-1,	59,	50,	-1,	-1,	-1,	18,	-1,	-1,	-1,	-1,	47,	-1,	-1,	-1,	-1,	-1,	-1,	34,	57,	-1,	-1,	-1,	-1,	-1,	61,	56,	-1,	-1,	43,	-1,	-1,	19,	3|
-1,	-1,	37,	21,	-1,	-1,	-1,	61,	-1,	-1,	-1,	-1,	-1,	-1,	48,	-1,	-1,	33,	-1,	-1,	34,	4,	-1,	-1,	26,	3,	-1,	16,	42,	10,	-1,	7,	-1,	-1,	38,	27,	56,	-1,	-1,	-1,	12,	-1,	-1,	64,	-1,	54,	-1,	-1,	-1,	17,	62,	-1,	-1,	20,	-1,	-1,	50,	-1,	-1,	22,	13,	24,	-1,	47|
2,	-1,	-1,	-1,	40,	11,	-1,	-1,	-1,	46,	52,	-1,	6,	-1,	29,	-1,	-1,	-1,	-1,	-1,	9,	-1,	-1,	-1,	22,	-1,	-1,	-1,	-1,	-1,	-1,	-1,	4,	24,	-1,	20,	-1,	-1,	-1,	-1,	-1,	53,	62,	-1,	43,	56,	19,	17,	-1,	58,	50,	-1,	55,	35,	-1,	-1,	-1,	32,	-1,	-1,	-1,	27,	44,	61|
55,	39,	-1,	25,	51,	29,	-1,	17,	27,	57,	-1,	-1,	1,	-1,	-1,	-1,	-1,	46,	-1,	-1,	-1,	37,	-1,	-1,	-1,	-1,	-1,	34,	50,	-1,	-1,	8,	60,	21,	54,	-1,	-1,	44,	-1,	49,	-1,	-1,	-1,	33,	-1,	-1,	41,	58,	-1,	47,	-1,	-1,	-1,	-1,	43,	-1,	59,	-1,	-1,	16,	-1,	-1,	-1,	52|
4,	-1,	-1,	-1,	42,	-1,	6,	-1,	-1,	45,	-1,	-1,	54,	-1,	44,	-1,	-1,	-1,	-1,	-1,	-1,	-1,	-1,	22,	-1,	-1,	-1,	25,	-1,	-1,	-1,	58,	57,	40,	16,	-1,	-1,	37,	-1,	31,	-1,	-1,	-1,	-1,	61,	48,	63,	-1,	-1,	-1,	10,	51,	-1,	-1,	-1,	46,	38,	-1,	18,	-1,	-1,	64,	17,	60|
-1,	-1,	-1,	59,	-1,	-1,	-1,	-1,	-1,	42,	20,	-1,	-1,	-1,	-1,	-1,	-1,	64,	-1,	47,	-1,	61,	14,	54,	-1,	-1,	-1,	-1,	-1,	-1,	-1,	49,	-1,	62,	-1,	-1,	11,	13,	-1,	51,	-1,	3,	-1,	39,	46,	24,	6,	32,	9,	33,	-1,	-1,	5,	31,	48,	-1,	-1,	-1,	29,	36,	-1,	26,	4,	25|
-1,	-1,	-1,	34,	19,	-1,	17,	33,	-1,	-1,	-1,	11,	24,	-1,	-1,	-1,	-1,	28,	-1,	22,	54,	-1,	-1,	-1,	18,	42,	30,	55,	36,	-1,	-1,	48,	-1,	-1,	29,	-1,	62,	59,	-1,	-1,	-1,	-1,	-1,	-1,	38,	-1,	-1,	-1,	7,	-1,	40,	-1,	-1,	-1,	31,	45,	-1,	-1,	37,	13,	-1,	-1,	-1,	-1|
-1,	36,	49,	12,	31,	52,	-1,	-1,	50,	-1,	-1,	10,	-1,	-1,	35,	-1,	-1,	19,	-1,	-1,	2,	-1,	9,	-1,	-1,	-1,	25,	57,	-1,	21,	61,	-1,	20,	55,	32,	-1,	16,	41,	51,	-1,	-1,	-1,	33,	-1,	-1,	-1,	-1,	-1,	54,	5,	17,	44,	-1,	-1,	-1,	18,	-1,	14,	7,	-1,	24,	-1,	45,	63|
-1,	-1,	64,	53,	-1,	63,	-1,	-1,	-1,	-1,	1,	60,	4,	-1,	-1,	-1,	-1,	12,	-1,	-1,	20,	-1,	-1,	36,	-1,	-1,	-1,	-1,	-1,	5,	-1,	16,	-1,	17,	-1,	50,	-1,	24,	-1,	35,	-1,	-1,	-1,	-1,	49,	-1,	-1,	-1,	-1,	-1,	29,	-1,	59,	-1,	28,	-1,	-1,	-1,	42,	3,	-1,	19,	-1,	-1|
-1,	-1,	2,	-1,	48,	-1,	20,	27,	-1,	28,	-1,	-1,	-1,	-1,	7,	-1,	39,	35,	45,	26,	-1,	-1,	51,	-1,	38,	-1,	60,	52,	-1,	-1,	-1,	-1,	63,	-1,	-1,	-1,	-1,	-1,	-1,	-1,	15,	31,	17,	-1,	-1,	57,	-1,	40,	-1,	-1,	3,	-1,	4,	-1,	19,	-1,	-1,	-1,	-1,	47,	-1,	-1,	-1,	-1|
-1,	-1,	-1,	-1,	-1,	-1,	55,	-1,	-1,	52,	-1,	-1,	-1,	-1,	36,	15,	63,	-1,	-1,	-1,	-1,	42,	49,	59,	13,	64,	31,	-1,	20,	17,	58,	-1,	-1,	19,	-1,	5,	54,	-1,	40,	34,	53,	56,	6,	7,	-1,	-1,	46,	37,	25,	62,	-1,	35,	-1,	-1,	-1,	30,	-1,	-1,	50,	1,	-1,	8,	-1,	-1|
18,	42,	-1,	29,	-1,	24,	-1,	-1,	-1,	-1,	-1,	-1,	57,	-1,	-1,	-1,	40,	5,	23,	43,	37,	6,	-1,	-1,	-1,	63,	45,	19,	-1,	-1,	59,	32,	-1,	-1,	-1,	-1,	-1,	-1,	-1,	-1,	48,	-1,	2,	14,	13,	-1,	62,	-1,	-1,	21,	11,	-1,	38,	-1,	-1,	-1,	-1,	-1,	-1,	-1,	-1,	-1,	-1,	-1|
3,	11,	-1,	-1,	-1,	-1,	43,	5,	-1,	18,	-1,	-1,	44,	30,	-1,	-1,	-1,	8,	-1,	14,	-1,	-1,	-1,	-1,	-1,	-1,	4,	50,	-1,	9,	-1,	12,	-1,	37,	-1,	-1,	-1,	31,	-1,	39,	-1,	25,	-1,	-1,	51,	36,	-1,	-1,	-1,	46,	-1,	-1,	-1,	-1,	64,	63,	-1,	28,	-1,	20,	62,	-1,	-1,	59|
-1,	-1,	-1,	40,	-1,	-1,	-1,	-1,	63,	-1,	5,	19,	61,	-1,	-1,	13,	-1,	-1,	21,	-1,	-1,	10,	-1,	-1,	-1,	-1,	-1,	-1,	7,	-1,	-1,	-1,	-1,	-1,	-1,	-1,	22,	53,	-1,	14,	-1,	29,	55,	-1,	20,	-1,	-1,	-1,	-1,	-1,	-1,	-1,	47,	-1,	-1,	12,	-1,	-1,	-1,	-1,	-1,	46,	-1,	-1|
39,	47,	-1,	-1,	59,	-1,	-1,	-1,	-1,	-1,	51,	-1,	-1,	-1,	-1,	-1,	-1,	-1,	32,	28,	16,	-1,	-1,	48,	-1,	-1,	57,	-1,	-1,	-1,	52,	25,	-1,	18,	-1,	10,	-1,	-1,	-1,	61,	-1,	-1,	-1,	-1,	-1,	-1,	-1,	-1,	17,	-1,	-1,	-1,	35,	-1,	50,	-1,	-1,	11,	-1,	-1,	8,	-1,	-1,	31|
-1,	43,	-1,	-1,	14,	26,	-1,	25,	-1,	4,	-1,	-1,	-1,	32,	-1,	31,	5,	56,	-1,	-1,	-1,	-1,	-1,	-1,	23,	-1,	-1,	-1,	61,	-1,	60,	55,	-1,	-1,	19,	39,	-1,	-1,	-1,	57,	-1,	6,	-1,	36,	-1,	-1,	-1,	-1,	-1,	42,	-1,	16,	-1,	-1,	34,	-1,	22,	-1,	-1,	-1,	-1,	-1,	-1,	-1|
-1,	53,	8,	-1,	-1,	-1,	-1,	-1,	18,	-1,	-1,	-1,	-1,	57,	-1,	27,	60,	-1,	-1,	4,	-1,	-1,	63,	30,	-1,	-1,	-1,	-1,	-1,	51,	-1,	-1,	52,	-1,	-1,	31,	-1,	-1,	-1,	55,	3,	-1,	-1,	35,	-1,	-1,	40,	-1,	-1,	-1,	15,	-1,	-1,	-1,	-1,	9,	-1,	49,	-1,	-1,	-1,	-1,	47,	-1|
-1,	-1,	-1,	-1,	-1,	-1,	-1,	64,	53,	-1,	-1,	56,	-1,	22,	-1,	17,	34,	7,	37,	25,	-1,	59,	-1,	-1,	-1,	-1,	63,	-1,	43,	11,	44,	-1,	-1,	28,	-1,	-1,	-1,	-1,	-1,	-1,	24,	-1,	-1,	61,	4,	-1,	-1,	-1,	-1,	27,	-1,	-1,	-1,	51,	-1,	-1,	1,	-1,	40,	-1,	-1,	-1,	6,	-1|
-1,	6,	-1,	36,	50,	-1,	-1,	-1,	7,	26,	19,	-1,	-1,	20,	5,	-1,	-1,	-1,	22,	-1,	-1,	49,	11,	40,	-1,	-1,	54,	-1,	-1,	18,	-1,	56,	35,	14,	37,	-1,	-1,	23,	-1,	45,	1,	-1,	-1,	31,	57,	-1,	-1,	41,	-1,	59,	25,	-1,	44,	-1,	47,	-1,	53,	43,	-1,	-1,	-1,	55,	27,	-1|
-1,	31,	46,	-1,	-1,	-1,	10,	-1,	-1,	-1,	61,	-1,	11,	-1,	21,	-1,	-1,	-1,	-1,	-1,	-1,	-1,	-1,	2,	-1,	-1,	26,	-1,	39,	-1,	42,	-1,	-1,	-1,	-1,	-1,	-1,	22,	48,	-1,	54,	-1,	-1,	55,	-1,	47,	60,	-1,	57,	40,	64,	-1,	-1,	28,	41,	-1,	19,	-1,	17,	-1,	25,	-1,	16,	-1|
-1,	-1,	-1,	1,	9,	-1,	-1,	51,	33,	41,	-1,	-1,	-1,	-1,	-1,	28,	8,	-1,	-1,	-1,	-1,	-1,	-1,	-1,	-1,	-1,	37,	5,	-1,	-1,	-1,	-1,	-1,	27,	-1,	30,	53,	-1,	-1,	-1,	-1,	52,	-1,	-1,	-1,	2,	59,	50,	-1,	-1,	-1,	-1,	-1,	-1,	-1,	-1,	-1,	3,	57,	29,	20,	-1,	-1,	-1|
52,	-1,	-1,	-1,	-1,	57,	40,	2,	-1,	-1,	-1,	25,	-1,	64,	39,	16,	-1,	-1,	-1,	33,	14,	-1,	-1,	-1,	41,	-1,	-1,	-1,	-1,	-1,	-1,	-1,	-1,	54,	-1,	-1,	34,	46,	-1,	50,	49,	5,	58,	63,	-1,	-1,	-1,	56,	43,	-1,	-1,	22,	53,	-1,	-1,	-1,	-1,	-1,	-1,	23,	-1,	18,	-1,	-1|];
