sudoku-ls/benchmarks_LEQ/INST_64x64/40/inst64x64_40_40.txt
8
1
25	-1	51	5	61	-1	-1	4	58	12	-1	-1	-1	-1	-1	-1	9	-1	44	-1	60	-1	26	8	-1	-1	-1	-1	52	-1	-1	-1	-1	-1	-1	19	-1	-1	-1	28	-1	23	-1	-1	-1	-1	-1	-1	-1	-1	37	-1	48	47	21	-1	27	-1	-1	-1	-1	22	-1	38
28	-1	-1	-1	18	-1	-1	-1	57	15	-1	44	-1	-1	-1	35	-1	29	-1	-1	49	27	-1	-1	-1	39	-1	31	-1	48	-1	-1	-1	-1	-1	56	-1	4	45	7	16	-1	14	-1	40	13	38	-1	-1	-1	-1	-1	-1	5	-1	58	-1	26	-1	50	-1	20	-1	-1
-1	-1	-1	-1	-1	-1	-1	-1	32	47	4	64	-1	-1	-1	9	-1	-1	-1	62	-1	-1	-1	16	20	-1	-1	-1	-1	-1	43	-1	-1	-1	58	53	31	52	-1	13	56	-1	61	17	15	25	-1	49	-1	-1	-1	-1	19	10	6	2	23	-1	-1	-1	35	-1	28	24
40	-1	-1	-1	47	-1	29	13	-1	-1	-1	-1	-1	-1	-1	-1	48	-1	4	-1	-1	-1	42	43	-1	37	11	-1	-1	-1	-1	-1	23	39	-1	62	6	55	-1	30	10	54	32	-1	-1	22	-1	-1	61	60	-1	-1	-1	-1	-1	36	-1	-1	58	-1	3	-1	-1	15
-1	1	-1	-1	15	-1	-1	-1	-1	-1	13	-1	-1	38	10	11	-1	2	57	-1	-1	-1	-1	-1	-1	18	23	-1	-1	25	-1	-1	14	-1	51	3	-1	9	-1	-1	-1	-1	-1	-1	58	-1	-1	-1	27	32	-1	-1	-1	-1	29	52	8	-1	36	-1	46	17	7	37
27	-1	11	30	-1	-1	-1	43	-1	-1	-1	23	-1	59	50	-1	-1	-1	-1	-1	15	-1	-1	38	33	61	-1	-1	58	-1	-1	42	-1	-1	-1	22	-1	-1	44	18	-1	-1	-1	-1	-1	-1	-1	52	56	16	28	13	64	34	-1	25	-1	-1	-1	-1	-1	39	10	-1
-1	64	50	44	-1	14	-1	19	-1	21	30	49	-1	2	-1	-1	-1	-1	-1	11	-1	24	18	6	5	-1	-1	-1	-1	22	-1	63	-1	-1	59	-1	-1	60	-1	-1	-1	9	-1	-1	39	33	-1	-1	40	-1	-1	-1	-1	-1	-1	15	41	-1	45	25	43	-1	-1	-1
-1	55	-1	42	38	20	-1	-1	-1	-1	41	31	-1	-1	-1	48	14	-1	7	3	61	-1	-1	10	4	-1	34	-1	49	-1	-1	28	-1	-1	25	11	-1	43	-1	15	2	36	-1	-1	47	-1	-1	-1	33	-1	-1	-1	39	54	63	-1	-1	5	62	-1	-1	-1	21	40
-1	38	26	33	-1	54	-1	-1	-1	-1	29	53	-1	-1	-1	-1	-1	-1	-1	-1	47	-1	48	-1	-1	-1	36	40	-1	23	-1	13	42	-1	-1	-1	-1	-1	24	-1	-1	-1	15	-1	-1	-1	30	-1	55	20	-1	-1	-1	60	-1	-1	-1	-1	-1	49	-1	63	62	17
50	-1	-1	-1	-1	-1	1	60	30	55	-1	-1	-1	43	-1	-1	-1	20	34	-1	-1	15	4	-1	-1	28	-1	-1	45	-1	-1	-1	-1	22	17	54	-1	-1	-1	3	-1	-1	52	-1	-1	29	-1	14	12	63	38	-1	6	-1	-1	56	42	-1	-1	-1	18	-1	-1	-1
-1	37	-1	-1	34	43	59	-1	-1	13	15	46	-1	27	17	-1	16	-1	-1	21	-1	-1	33	61	7	19	-1	-1	-1	52	8	-1	28	-1	-1	55	45	-1	36	-1	31	-1	-1	-1	2	64	-1	-1	1	-1	-1	-1	-1	62	-1	-1	3	-1	-1	30	-1	6	-1	-1
-1	62	25	-1	-1	-1	58	-1	-1	-1	-1	35	7	-1	-1	51	18	-1	-1	45	-1	-1	-1	-1	1	-1	-1	-1	6	50	-1	-1	-1	-1	-1	14	-1	-1	52	-1	-1	48	-1	-1	44	-1	-1	-1	-1	28	-1	19	57	-1	33	-1	60	-1	41	-1	-1	-1	-1	-1
-1	-1	-1	-1	-1	31	-1	-1	-1	-1	14	63	-1	-1	-1	-1	26	-1	9	-1	25	-1	59	60	48	-1	21	-1	-1	42	37	43	-1	6	-1	38	-1	-1	-1	64	32	-1	36	-1	8	23	-1	-1	-1	30	-1	27	-1	18	-1	41	-1	22	24	-1	-1	-1	-1	-1
-1	51	24	10	-1	23	-1	14	-1	-1	-1	-1	-1	-1	-1	-1	-1	-1	-1	52	-1	-1	-1	29	-1	15	-1	-1	56	-1	-1	61	-1	41	-1	-1	-1	39	16	-1	-1	33	34	-1	-1	35	-1	-1	-1	-1	-1	-1	-1	-1	54	-1	-1	-1	-1	-1	-1	-1	-1	5
32	27	36	-1	-1	-1	2	39	-1	60	59	-1	-1	-1	20	24	-1	-1	-1	-1	-1	-1	8	23	44	57	-1	-1	-1	-1	-1	31	49	-1	26	37	-1	51	-1	-1	47	-1	38	-1	62	-1	-1	19	-1	-1	-1	15	-1	-1	-1	-1	64	-1	-1	-1	-1	-1	46	14
47	-1	15	-1	45	-1	-1	-1	22	33	-1	-1	-1	-1	11	44	49	-1	-1	-1	-1	43	36	-1	-1	-1	-1	-1	-1	-1	-1	20	-1	30	-1	34	-1	2	-1	-1	-1	-1	-1	-1	-1	17	61	4	-1	-1	58	-1	7	-1	23	40	-1	37	-1	19	-1	-1	-1	56
-1	-1	-1	-1	-1	46	-1	-1	52	-1	-1	45	-1	-1	62	-1	-1	-1	-1	-1	-1	-1	-1	-1	-1	-1	15	-1	34	-1	-1	22	-1	60	-1	59	-1	49	9	-1	-1	37	-1	-1	24	-1	-1	-1	21	13	-1	-1	20	41	-1	-1	11	-1	-1	57	5	-1	-1	16
45	-1	-1	-1	-1	59	21	42	-1	-1	-1	-1	-1	-1	-1	-1	46	34	-1	-1	-1	44	54	47	-1	-1	-1	-1	10	-1	48	-1	37	-1	-1	35	26	-1	-1	-1	52	-1	40	53	1	-1	9	3	4	29	-1	43	11	-1	-1	-1	-1	55	-1	38	-1	-1	-1	-1
-1	-1	-1	-1	2	19	39	-1	-1	-1	23	-1	-1	26	-1	-1	64	-1	-1	1	29	-1	37	-1	-1	-1	46	-1	-1	3	51	-1	43	15	56	-1	55	-1	-1	-1	-1	11	44	42	63	31	-1	20	-1	36	16	32	60	7	-1	-1	-1	-1	27	33	40	41	61	-1
49	28	5	-1	58	32	-1	24	-1	-1	44	-1	10	-1	-1	-1	-1	15	-1	40	38	-1	-1	-1	54	35	13	-1	9	12	-1	-1	21	-1	-1	36	-1	-1	1	-1	33	62	45	30	-1	-1	-1	-1	-1	-1	55	-1	18	19	22	-1	-1	39	-1	-1	-1	-1	37	-1
-1	-1	62	-1	-1	-1	36	-1	42	-1	-1	-1	-1	-1	49	-1	-1	-1	-1	-1	-1	45	20	24	-1	2	-1	32	41	-1	-1	-1	-1	38	50	57	52	64	4	-1	-1	-1	-1	19	-1	-1	23	-1	-1	-1	-1	31	58	15	-1	37	-1	10	-1	-1	48	28	25	-1
-1	20	-1	11	-1	64	41	-1	40	37	-1	-1	19	48	57	29	-1	-1	59	55	-1	-1	10	27	-1	60	-1	-1	-1	58	-1	-1	45	-1	22	6	30	-1	18	2	39	38	56	-1	-1	-1	-1	36	-1	-1	-1	53	62	12	-1	-1	-1	-1	47	-1	-1	-1	-1	46
31	-1	-1	43	37	-1	-1	-1	-1	11	-1	-1	-1	53	-1	14	-1	18	-1	61	-1	57	5	-1	-1	-1	33	56	-1	-1	39	62	-1	-1	-1	24	-1	-1	47	-1	7	-1	21	-1	12	-1	-1	-1	-1	10	-1	40	45	-1	-1	-1	49	-1	26	35	42	-1	-1	-1
-1	-1	23	-1	-1	40	-1	-1	-1	35	-1	-1	-1	-1	32	20	-1	-1	-1	-1	30	-1	19	-1	-1	31	-1	-1	-1	-1	-1	-1	-1	-1	-1	-1	-1	-1	-1	-1	-1	-1	-1	-1	-1	-1	49	28	42	48	-1	-1	-1	-1	-1	44	62	-1	51	-1	6	-1	-1	9
-1	23	33	-1	-1	-1	-1	-1	17	-1	-1	14	-1	13	-1	32	-1	-1	-1	6	53	-1	-1	-1	-1	5	35	-1	-1	-1	-1	44	8	-1	21	-1	-1	20	37	27	-1	39	-1	2	-1	18	-1	-1	-1	-1	-1	46	-1	-1	-1	50	-1	-1	-1	61	-1	36	-1	58
-1	-1	-1	-1	-1	1	27	40	59	25	-1	-1	23	8	-1	-1	-1	47	52	-1	41	-1	43	-1	-1	21	-1	18	-1	-1	-1	-1	-1	-1	-1	60	-1	54	11	-1	61	-1	-1	-1	56	-1	-1	-1	44	-1	39	5	22	49	-1	-1	-1	-1	12	2	-1	-1	14	20
-1	-1	30	31	-1	-1	-1	-1	41	-1	49	-1	-1	-1	-1	6	-1	-1	3	-1	-1	-1	-1	-1	-1	38	-1	-1	-1	-1	-1	-1	-1	12	15	-1	-1	-1	28	-1	-1	-1	-1	-1	37	7	-1	-1	-1	-1	-1	-1	24	63	-1	54	17	-1	-1	4	27	-1	50	-1
-1	56	-1	-1	-1	-1	-1	-1	-1	-1	-1	-1	20	-1	37	-1	2	4	8	-1	-1	-1	61	-1	-1	-1	59	-1	62	-1	-1	-1	13	-1	49	40	-1	57	-1	-1	6	-1	-1	-1	-1	-1	-1	-1	3	19	41	14	21	-1	12	-1	43	23	48	18	-1	15	60	28
-1	-1	-1	39	36	-1	-1	15	1	-1	9	-1	-1	-1	-1	-1	-1	-1	63	-1	13	-1	-1	-1	-1	25	-1	58	-1	-1	55	2	-1	16	-1	-1	-1	-1	-1	62	20	-1	5	27	-1	14	53	47	-1	-1	-1	-1	33	-1	-1	-1	46	-1	52	-1	-1	44	56	11
43	-1	-1	-1	-1	-1	-1	37	-1	-1	27	-1	-1	29	-1	-1	-1	42	14	-1	-1	33	57	9	50	-1	-1	53	63	56	-1	34	36	-1	2	-1	41	-1	64	-1	-1	-1	23	-1	48	-1	35	62	31	52	4	55	-1	-1	-1	26	-1	54	-1	-1	-1	-1	-1	21
-1	54	21	50	-1	-1	-1	18	-1	-1	-1	-1	-1	44	-1	-1	20	-1	-1	-1	-1	-1	-1	51	3	-1	61	-1	-1	-1	-1	-1	-1	5	-1	-1	4	56	19	-1	-1	-1	-1	58	-1	34	-1	-1	-1	-1	-1	8	15	-1	-1	-1	10	47	-1	59	-1	-1	63	-1
-1	22	-1	-1	-1	2	57	-1	-1	43	56	34	64	-1	33	-1	-1	59	-1	-1	10	54	-1	-1	-1	-1	-1	6	14	-1	-1	-1	-1	-1	-1	25	3	-1	-1	-1	-1	-1	-1	-1	-1	44	16	-1	-1	-1	-1	28	-1	-1	-1	-1	-1	62	-1	32	29	-1	41	-1
62	29	-1	-1	-1	-1	-1	59	-1	44	-1	-1	31	12	-1	-1	56	-1	-1	-1	21	16	-1	-1	43	13	-1	35	-1	8	-1	51	9	-1	-1	64	-1	-1	-1	-1	-1	18	-1	49	-1	-1	-1	-1	-1	-1	-1	47	27	-1	-1	-1	24	-1	15	40	-1	-1	-1	48
-1	-1	-1	-1	43	13	-1	-1	49	-1	6	-1	-1	-1	-1	-1	36	-1	29	42	-1	30	-1	-1	-1	-1	-1	-1	54	2	63	39	5	-1	-1	-1	-1	-1	41	-1	-1	14	-1	51	-1	40	56	-1	-1	-1	-1	-1	-1	50	-1	4	-1	-1	8	-1	-1	-1	-1	-1
-1	19	-1	46	53	-1	-1	35	-1	50	11	-1	32	1	-1	36	47	-1	-1	-1	-1	-1	-1	-1	-1	-1	64	-1	-1	-1	12	-1	-1	-1	-1	-1	-1	-1	55	-1	43	-1	24	-1	9	-1	-1	29	41	-1	-1	56	-1	48	-1	-1	-1	30	-1	63	-1	16	34	45
-1	5	-1	-1	-1	34	-1	-1	-1	-1	-1	57	-1	47	-1	61	-1	3	26	60	23	12	-1	18	-1	-1	48	-1	-1	-1	-1	-1	33	-1	-1	-1	36	-1	-1	-1	-1	-1	-1	-1	50	-1	31	64	-1	-1	2	-1	-1	40	-1	-1	-1	-1	14	-1	-1	-1	-1	-1
-1	-1	31	-1	1	22	-1	-1	39	-1	33	-1	30	35	24	-1	53	-1	-1	15	-1	-1	64	28	17	16	27	-1	5	-1	-1	36	34	49	11	-1	-1	50	-1	37	-1	46	-1	45	19	38	48	61	14	-1	-1	9	-1	-1	-1	13	47	56	10	-1	-1	59	26	-1
44	14	16	-1	4	3	50	-1	-1	8	-1	-1	29	54	13	45	-1	-1	-1	31	-1	-1	-1	62	25	58	-1	-1	-1	19	-1	33	17	-1	47	48	-1	-1	-1	-1	11	57	37	26	23	52	34	-1	-1	6	12	-1	-1	-1	-1	-1	61	-1	20	42	32	-1	18	-1
-1	60	39	-1	27	-1	56	-1	9	-1	-1	48	-1	14	64	59	-1	-1	-1	46	63	-1	-1	-1	-1	6	41	-1	-1	-1	-1	-1	-1	-1	-1	-1	-1	-1	22	-1	5	-1	-1	-1	-1	53	-1	-1	58	38	-1	-1	42	-1	62	-1	-1	-1	23	-1	37	-1	-1	44
48	2	57	-1	41	18	25	45	38	-1	34	-1	43	21	-1	-1	61	37	-1	9	33	-1	50	-1	-1	-1	-1	11	-1	-1	-1	-1	26	-1	-1	-1	-1	-1	-1	23	28	-1	-1	-1	10	-1	-1	12	-1	-1	-1	-1	-1	3	-1	-1	-1	46	49	-1	-1	-1	-1	-1
13	-1	58	45	22	36	-1	-1	-1	-1	18	-1	-1	56	-1	-1	-1	10	-1	-1	52	20	-1	-1	-1	-1	-1	-1	-1	-1	54	30	-1	43	-1	-1	32	-1	-1	-1	21	-1	-1	-1	34	-1	-1	7	-1	41	-1	-1	2	-1	25	-1	-1	48	46	62	-1	-1	-1	33
26	16	18	-1	20	-1	-1	-1	-1	32	-1	-1	-1	4	40	-1	38	-1	28	49	-1	-1	-1	44	-1	-1	-1	-1	17	-1	-1	-1	-1	-1	-1	-1	25	-1	-1	58	29	-1	-1	-1	-1	-1	22	23	-1	-1	-1	-1	-1	-1	-1	-1	-1	-1	1	-1	-1	54	42	41
-1	49	-1	-1	24	44	9	46	11	-1	-1	51	-1	-1	-1	-1	62	-1	-1	-1	8	32	-1	-1	60	23	-1	-1	13	1	-1	-1	50	-1	-1	-1	-1	63	33	36	45	-1	26	-1	-1	4	-1	-1	34	-1	-1	-1	40	-1	42	61	56	-1	-1	-1	53	-1	19	-1
-1	-1	37	-1	-1	-1	31	-1	-1	36	35	41	25	-1	-1	-1	-1	-1	-1	-1	34	-1	40	-1	26	-1	55	-1	-1	-1	46	-1	-1	45	38	-1	56	-1	-1	-1	12	-1	-1	-1	-1	-1	-1	-1	-1	-1	62	1	-1	-1	-1	-1	-1	6	-1	22	13	24	49	47
-1	33	3	38	40	-1	-1	1	31	46	52	-1	6	7	29	-1	-1	25	42	57	9	51	-1	-1	-1	-1	-1	-1	-1	-1	41	47	4	24	-1	-1	-1	-1	59	-1	18	53	62	-1	43	-1	19	-1	-1	58	-1	64	55	-1	-1	-1	45	-1	-1	-1	30	-1	-1	-1
55	-1	-1	-1	51	-1	64	17	-1	-1	-1	22	-1	-1	38	-1	6	46	13	-1	-1	-1	-1	-1	-1	-1	-1	34	50	-1	2	-1	60	-1	-1	-1	-1	-1	-1	49	-1	15	-1	-1	42	10	-1	58	-1	-1	-1	-1	63	45	43	-1	59	35	-1	-1	28	-1	-1	52
4	-1	28	-1	-1	-1	6	-1	47	45	55	59	-1	-1	-1	8	29	1	24	-1	-1	-1	-1	22	56	-1	19	-1	-1	-1	-1	-1	-1	40	16	7	-1	37	34	-1	30	-1	35	-1	61	48	-1	-1	39	-1	10	-1	-1	21	-1	46	38	9	-1	-1	-1	-1	-1	60
-1	-1	43	-1	-1	60	7	-1	-1	-1	20	-1	-1	-1	-1	23	-1	64	16	47	-1	-1	14	-1	53	52	18	-1	44	63	57	49	-1	62	-1	41	11	13	17	51	40	-1	-1	-1	46	-1	6	-1	-1	33	19	38	-1	-1	-1	28	-1	8	29	36	-1	-1	4	25
-1	58	14	34	19	50	17	-1	-1	20	53	11	24	9	41	-1	-1	-1	61	22	-1	64	-1	3	-1	-1	30	-1	-1	-1	1	48	46	-1	29	-1	62	59	2	-1	-1	-1	63	-1	38	5	21	-1	-1	-1	-1	-1	26	56	-1	-1	-1	4	-1	-1	15	-1	-1	-1
-1	-1	-1	12	31	52	-1	-1	-1	-1	48	10	-1	-1	35	34	27	-1	-1	-1	2	60	-1	-1	62	-1	-1	57	-1	21	-1	40	-1	-1	32	-1	16	41	-1	11	8	-1	33	-1	-1	28	-1	-1	54	5	-1	44	13	53	-1	-1	-1	-1	-1	-1	-1	-1	45	-1
30	-1	-1	-1	-1	63	-1	-1	-1	14	-1	-1	4	-1	-1	-1	13	-1	-1	38	-1	7	-1	36	-1	56	8	2	37	-1	-1	-1	15	-1	-1	50	9	-1	-1	35	41	61	-1	-1	-1	58	10	26	51	-1	29	-1	-1	-1	-1	-1	48	40	-1	-1	-1	-1	43	27
-1	-1	-1	-1	-1	-1	-1	-1	21	28	-1	-1	-1	-1	7	-1	39	-1	45	-1	50	-1	51	33	-1	44	60	-1	-1	-1	-1	-1	-1	-1	64	-1	1	-1	23	56	-1	-1	-1	24	-1	-1	-1	40	-1	-1	3	-1	4	42	19	-1	5	12	-1	-1	-1	25	-1	-1
60	4	-1	61	-1	-1	55	28	-1	-1	2	-1	51	39	36	15	-1	-1	48	24	-1	-1	49	-1	-1	-1	-1	14	-1	17	-1	-1	-1	19	45	-1	-1	-1	-1	-1	53	-1	-1	7	-1	-1	-1	-1	-1	-1	-1	35	32	43	-1	-1	-1	-1	50	-1	-1	8	33	57
18	-1	-1	29	-1	-1	-1	44	8	-1	-1	-1	57	-1	-1	-1	-1	5	-1	-1	-1	-1	-1	-1	51	63	45	19	28	53	-1	32	-1	26	-1	-1	33	-1	-1	-1	48	35	-1	-1	-1	50	-1	-1	-1	-1	11	49	-1	-1	-1	-1	-1	-1	-1	-1	55	-1	54	-1
-1	-1	1	-1	-1	-1	-1	-1	-1	18	-1	-1	-1	-1	-1	-1	32	8	47	-1	55	53	-1	34	10	33	-1	-1	22	-1	-1	12	-1	37	57	13	-1	31	-1	-1	23	-1	-1	60	-1	36	52	-1	-1	-1	-1	-1	-1	-1	-1	-1	-1	-1	56	20	62	-1	58	-1
37	-1	-1	-1	-1	-1	51	-1	63	-1	5	-1	-1	62	45	-1	31	-1	21	44	-1	10	-1	-1	-1	-1	6	54	-1	-1	-1	24	-1	-1	28	49	22	-1	3	-1	-1	-1	-1	-1	-1	42	-1	43	-1	2	27	-1	-1	33	-1	-1	-1	-1	38	11	60	-1	-1	-1
-1	47	-1	-1	-1	55	-1	-1	14	-1	51	-1	2	42	-1	12	-1	-1	32	-1	-1	29	-1	-1	58	-1	57	-1	-1	64	52	-1	-1	-1	-1	10	5	-1	-1	-1	-1	44	-1	23	45	-1	-1	53	-1	7	56	-1	-1	-1	50	-1	-1	11	-1	-1	8	-1	24	31
-1	-1	38	-1	-1	-1	-1	-1	44	-1	-1	-1	-1	-1	54	31	-1	-1	-1	-1	-1	-1	-1	-1	-1	-1	1	7	61	-1	60	-1	47	-1	-1	-1	-1	-1	8	-1	-1	-1	10	-1	-1	-1	37	-1	24	42	-1	16	3	-1	-1	48	-1	-1	59	52	-1	-1	35	64
16	53	8	22	21	-1	-1	-1	18	-1	-1	43	-1	-1	59	27	-1	-1	12	-1	26	-1	-1	30	2	48	17	45	33	51	-1	19	-1	-1	-1	31	-1	-1	-1	55	-1	28	-1	35	-1	39	-1	-1	-1	-1	15	-1	-1	-1	-1	9	-1	49	-1	-1	-1	-1	-1	42
58	-1	-1	62	-1	35	-1	-1	53	-1	47	56	-1	-1	30	17	-1	-1	37	-1	-1	-1	-1	-1	12	50	63	-1	-1	11	44	10	3	-1	-1	2	-1	-1	60	21	-1	19	-1	-1	-1	-1	42	48	-1	-1	-1	-1	-1	51	-1	-1	-1	36	40	-1	54	-1	-1	-1
-1	-1	-1	36	-1	-1	33	-1	7	-1	19	29	-1	20	-1	60	58	38	-1	-1	46	-1	-1	-1	-1	-1	-1	-1	-1	-1	-1	56	-1	14	-1	-1	64	-1	42	45	-1	-1	51	-1	-1	62	-1	41	8	-1	-1	-1	-1	-1	-1	-1	53	-1	13	-1	-1	55	27	-1
-1	31	46	-1	12	56	-1	49	-1	9	-1	-1	11	24	21	-1	-1	-1	-1	18	45	3	-1	-1	-1	53	26	-1	-1	-1	-1	27	-1	-1	-1	-1	20	-1	-1	4	-1	-1	-1	-1	14	47	-1	15	57	-1	-1	-1	-1	28	-1	38	-1	33	-1	-1	-1	-1	16	-1
-1	-1	-1	-1	-1	42	-1	-1	-1	-1	63	-1	-1	55	-1	-1	8	-1	-1	19	-1	-1	23	17	-1	22	-1	5	16	-1	-1	-1	56	27	43	30	-1	-1	-1	24	25	52	-1	-1	-1	-1	-1	-1	-1	61	-1	18	-1	-1	-1	6	-1	-1	57	29	20	62	48	-1
-1	44	19	27	-1	-1	40	-1	-1	48	-1	25	-1	-1	39	16	-1	-1	-1	-1	14	-1	-1	13	-1	-1	-1	30	59	6	32	-1	-1	-1	-1	-1	-1	-1	-1	50	49	-1	-1	-1	7	12	-1	56	43	4	36	-1	-1	-1	60	-1	-1	15	-1	-1	51	-1	9	-1
64 
54 55 9 15
1 58 42 22
51 60 44 26
55 27 26 12
59 55 61 15
37 18 29 3
39 43 46 62
23 6 56 55
15 34 31 59
36 3 10 33
24 17 30 26
7 27 13 8
30 55 59 48
16 27 54 44
13 60 40 46
8 61 23 12
2 11 7 52
58 48 43 37
50 18 10 4
39 28 7 55
46 34 12 6
61 19 8 7
56 31 8 22
22 51 1 28
33 40 20 50
48 62 64 57
12 18 53 38
7 43 55 58
43 27 46 6
32 57 39 42
9 14 10 58
47 26 34 45
60 35 28 48
9 10 12 60
38 34 10 38
7 26 10 13
2 24 64 13
54 53 57 33
63 64 42 23
40 26 49 51
57 8 33 24
36 40 14 12
62 42 22 11
45 63 9 35
3 6 63 55
24 36 21 46
24 4 7 62
52 5 62 39
49 16 4 39
19 2 45 51
28 4 10 64
36 61 20 23
16 24 51 4
55 4 48 24
41 57 38 8
1 60 7 21
58 40 29 51
59 37 58 13
10 28 29 37
3 4 16 30
52 61 50 31
27 52 5 31
1 61 58 58
20 45 12 9
